data;

param num_top:=5;

#nodes and edges of the physical network
param n := 10;

set E := (1,2) (1,3) (1,7) (2,4) (2,7) (3,5) (4,8) (5,6) (5,7) (6,7) (6,9) (7,8) (7,9) (8,10) (9,10) ;

#nodes and edges of the virtual networks
set Nl[1] := 10 9 2 5 4 ;
set Nl[2] := 4 7 9 8 1 ;
set Nl[3] := 10 2 4 5 8 ;
set Nl[4] := 1 8 2 5 6 ;
set Nl[5] := 4 10 2 7 5 ;

set El[1] := (9,10) (2,9) (2,5) (4,5) (4,10) (2,10) (5,9) (5,10) (4,9) (2,4) ;
set El[2] := (4,7) (7,9) (8,9) (1,8) (1,4) (1,9) (4,9) (4,8) (7,8) (1,7) ;
set El[3] := (2,10) (2,4) (4,5) (5,8) (8,10) (4,10) (5,10) (2,8) (4,8) (2,5) ;
set El[4] := (1,8) (2,8) (2,5) (5,6) (1,6) (6,8) (1,2) (1,5) (2,6) (5,8) ;
set El[5] := (4,10) (2,10) (2,7) (5,7) (4,5) (5,10) (2,4) (4,7) (2,5) (7,10) ;
